82
[[-1, 0, 3642, 9317, 44276, 0, 0, 0, 0, 43642, 0, 26075, 33914, 0, 44477, 0, 0, 0, 16790, 43693, 0, 0, 0, 23117, 0, 0, 0, 0, 0, 0, 0, 36724, 0, 0, 27741, 0, 0, 0, 45413, 0, 0, 19900, 0, 29809, 0, 25310, 34154, 0, 0, 34745, 27519, 45519, 0, 28475, 0, 0, 25501, 0, 0, 0, 0, 0, 0, 5698, 20112, 37884, 8550, 0, 0, 11929, 0, 0, 0, 0, 31436, 0, 0, 0, 0, 0, 0, 0],[0, -1, 0, 0, 0, 0, 0, 0, 0, 0, 0, 0, 0, 0, 0, 45513, 39991, 16892, 0, 0, 0, 0, 0, 0, 0, 0, 0, 0, 0, 26917, 32834, 16991, 0, 0, 35208, 0, 0, 0, 0, 0, 0, 0, 0, 37285, 0, 0, 29919, 0, 27118, 20552, 0, 0, 26332, 0, 33172, 0, 0, 0, 0, 35829, 0, 0, 15806, 0, 0, 0, 0, 44170, 21675, 0, 0, 0, 0, 0, 24560, 0, 0, 0, 0, 0, 0, 0],[3642, 0, -1, 40045, 0, 0, 0, 0, 0, 21234, 0, 24641, 0, 43730, 46104, 0, 0, 39139, 0, 0, 0, 32350, 21195, 0, 45578, 27526, 34613, 37765, 0, 42283, 0, 0, 0, 0, 0, 0, 0, 0, 0, 35448, 0, 0, 0, 0, 9928, 27879, 0, 0, 0, 0, 0, 0, 37971, 0, 0, 0, 0, 0, 0, 0, 27144, 0, 31551, 0, 0, 0, 0, 28887, 0, 0, 0, 37129, 0, 0, 9020, 0, 0, 0, 0, 0, 0, 44951],[9317, 0, 40045, -1, 0, 0, 21823, 0, 0, 0, 0, 0, 0, 0, 30280, 0, 0, 31999, 0, 0, 32671, 0, 0, 0, 3889, 0, 0, 0, 0, 0, 0, 0, 0, 0, 17812, 39956, 23682, 39821, 0, 0, 45224, 0, 43154, 0, 0, 0, 0, 28547, 0, 0, 0, 0, 0, 39724, 0, 0, 0, 0, 0, 0, 0, 0, 0, 29163, 0, 44293, 0, 0, 0, 31514, 0, 26746, 0, 0, 45055, 38854, 31740, 0, 0, 42489, 9367, 0],[44276, 0, 0, 0, -1, 0, 0, 28470, 22180, 0, 0, 34946, 0, 0, 0, 0, 30171, 12242, 0, 0, 29538, 0, 0, 0, 26510, 0, 0, 0, 0, 43669, 16281, 0, 0, 0, 0, 0, 0, 0, 0, 0, 0, 39263, 0, 0, 42099, 0, 0, 0, 0, 0, 0, 43810, 0, 0, 0, 0, 0, 12467, 0, 0, 0, 0, 0, 0, 19013, 0, 0, 0, 39300, 17601, 0, 0, 0, 0, 40767, 31791, 0, 0, 0, 0, 0, 0],[0, 0, 0, 0, 0, -1, 0, 0, 17974, 0, 37000, 22611, 0, 0, 0, 0, 0, 0, 0, 0, 0, 0, 0, 0, 0, 0, 0, 0, 0, 13146, 0, 43859, 0, 40626, 0, 0, 0, 0, 0, 0, 0, 0, 0, 44404, 0, 0, 0, 0, 0, 0, 0, 40955, 31627, 0, 0, 0, 0, 0, 0, 0, 0, 0, 0, 46209, 30205, 0, 0, 7673, 0, 0, 37830, 41845, 0, 0, 5274, 0, 0, 0, 0, 0, 0, 0],[0, 0, 0, 21823, 0, 0, -1, 0, 40925, 0, 0, 0, 0, 0, 45217, 0, 0, 42652, 0, 32275, 0, 0, 0, 0, 0, 28693, 0, 25565, 39587, 0, 0, 0, 0, 0, 32066, 0, 0, 34576, 0, 0, 0, 0, 0, 0, 39767, 13573, 0, 27192, 0, 0, 0, 0, 35571, 0, 0, 0, 0, 0, 0, 0, 0, 8806, 0, 0, 0, 0, 0, 0, 0, 0, 0, 0, 0, 0, 22101, 0, 0, 0, 0, 0, 0, 0],[0, 0, 0, 0, 28470, 0, 0, -1, 0, 32064, 32230, 0, 19072, 41244, 34228, 9128, 0, 0, 0, 0, 0, 0, 43105, 23657, 0, 0, 42087, 0, 0, 0, 0, 7715, 0, 0, 0, 23805, 0, 0, 0, 0, 0, 0, 0, 0, 0, 0, 0, 0, 0, 0, 0, 33369, 0, 0, 0, 0, 30419, 0, 42174, 0, 0, 0, 0, 0, 0, 0, 0, 37369, 15491, 0, 0, 0, 5695, 0, 0, 30823, 0, 8647, 0, 0, 0, 0],[0, 0, 0, 0, 22180, 17974, 40925, 0, -1, 0, 0, 0, 0, 34517, 0, 0, 0, 0, 0, 0, 0, 0, 0, 0, 0, 44399, 0, 0, 0, 0, 12207, 0, 0, 0, 40838, 20517, 0, 42667, 21977, 0, 30179, 0, 0, 0, 20220, 0, 0, 0, 0, 43483, 0, 0, 0, 0, 0, 0, 45924, 23063, 0, 0, 0, 0, 0, 0, 41810, 0, 0, 0, 45421, 0, 0, 35322, 9110, 35131, 0, 0, 0, 25511, 0, 0, 0, 0],[43642, 0, 21234, 0, 0, 0, 0, 32064, 0, -1, 0, 0, 32930, 0, 0, 14765, 28399, 0, 0, 0, 42614, 0, 34719, 0, 0, 40058, 0, 0, 0, 0, 0, 0, 32420, 0, 39024, 0, 0, 0, 0, 0, 0, 0, 0, 0, 0, 38949, 0, 0, 0, 39567, 0, 0, 0, 0, 0, 0, 0, 0, 0, 0, 38122, 25276, 0, 14778, 0, 0, 0, 0, 0, 0, 0, 0, 0, 0, 0, 0, 0, 0, 24255, 18050, 0, 0],[0, 0, 0, 0, 0, 37000, 0, 32230, 0, 0, -1, 0, 0, 0, 0, 0, 0, 0, 43171, 0, 0, 0, 6356, 0, 0, 0, 0, 0, 11324, 0, 0, 43413, 0, 0, 0, 0, 0, 25029, 0, 0, 0, 0, 0, 0, 34761, 0, 39060, 38024, 0, 0, 0, 32506, 0, 0, 0, 21787, 10241, 41214, 0, 0, 0, 0, 0, 0, 0, 0, 42751, 0, 23712, 0, 25072, 0, 0, 43617, 0, 0, 0, 0, 29030, 18741, 0, 0],[26075, 0, 24641, 0, 34946, 22611, 0, 0, 0, 0, 0, -1, 0, 0, 0, 0, 33158, 0, 0, 0, 0, 0, 26427, 0, 0, 0, 0, 0, 0, 0, 0, 0, 0, 0, 0, 45386, 0, 0, 0, 0, 0, 0, 0, 0, 38833, 0, 0, 0, 0, 45437, 0, 0, 0, 0, 0, 32248, 0, 0, 0, 23678, 0, 0, 0, 0, 43124, 0, 0, 0, 0, 0, 0, 0, 19276, 0, 37921, 0, 0, 0, 0, 23118, 0, 0],[33914, 0, 0, 0, 0, 0, 0, 19072, 0, 32930, 0, 0, -1, 0, 0, 0, 0, 0, 0, 0, 43618, 0, 0, 0, 0, 0, 0, 0, 0, 15943, 0, 44447, 0, 0, 21981, 44550, 0, 0, 27388, 0, 0, 0, 34280, 0, 0, 21351, 0, 38379, 0, 0, 0, 40671, 29240, 0, 0, 32805, 23894, 0, 0, 38354, 0, 0, 0, 0, 43182, 0, 0, 29547, 0, 0, 0, 41880, 0, 37857, 20657, 0, 0, 28798, 24941, 41135, 0, 0],[0, 0, 43730, 0, 0, 0, 0, 41244, 34517, 0, 0, 0, 0, -1, 0, 0, 22508, 0, 0, 0, 0, 0, 0, 28187, 24714, 33210, 0, 0, 0, 0, 0, 0, 43998, 31702, 0, 0, 0, 0, 0, 0, 0, 0, 0, 0, 0, 0, 0, 25865, 0, 0, 37551, 0, 29581, 0, 0, 44927, 14699, 42397, 29870, 0, 0, 0, 29879, 0, 0, 13481, 0, 36718, 16980, 14962, 0, 0, 0, 0, 42169, 0, 0, 31445, 0, 36645, 0, 0],[44477, 0, 46104, 30280, 0, 0, 45217, 34228, 0, 0, 0, 0, 0, 0, -1, 0, 14106, 0, 0, 0, 26161, 0, 0, 0, 0, 0, 0, 0, 33353, 0, 0, 0, 0, 0, 0, 0, 39257, 0, 30163, 0, 0, 19551, 0, 0, 0, 13862, 0, 32411, 0, 0, 22309, 0, 31205, 5912, 16296, 0, 45882, 0, 44902, 0, 7709, 0, 0, 0, 0, 0, 0, 0, 41201, 0, 0, 0, 0, 0, 0, 21792, 23420, 0, 0, 0, 0, 0],[0, 45513, 0, 0, 0, 0, 0, 9128, 0, 14765, 0, 0, 0, 0, 0, -1, 0, 0, 0, 31501, 16907, 0, 18172, 25062, 25596, 0, 0, 0, 0, 8713, 0, 0, 38890, 0, 27615, 40518, 0, 16245, 0, 0, 0, 0, 0, 0, 37944, 38474, 43242, 0, 0, 0, 23683, 43898, 0, 0, 0, 23858, 0, 0, 0, 0, 0, 0, 0, 0, 34480, 0, 0, 0, 0, 32476, 26111, 0, 42014, 0, 0, 36375, 0, 29581, 0, 0, 0, 0],[0, 39991, 0, 0, 30171, 0, 0, 0, 0, 28399, 0, 33158, 0, 22508, 14106, 0, -1, 0, 0, 0, 24989, 0, 36007, 0, 29223, 0, 0, 0, 34639, 0, 0, 0, 0, 0, 39726, 0, 0, 46247, 0, 41390, 0, 0, 0, 0, 0, 0, 0, 0, 39859, 0, 0, 0, 0, 0, 35776, 0, 0, 0, 0, 0, 0, 0, 19548, 0, 41870, 0, 0, 0, 44581, 0, 0, 21664, 0, 0, 0, 0, 0, 0, 0, 25118, 0, 0],[0, 16892, 39139, 31999, 12242, 0, 42652, 0, 0, 0, 0, 0, 0, 0, 0, 0, 0, -1, 0, 0, 0, 0, 21302, 0, 0, 0, 0, 0, 0, 6523, 0, 33567, 0, 0, 0, 0, 0, 0, 0, 27921, 0, 0, 0, 0, 30273, 0, 0, 13076, 0, 43689, 0, 0, 0, 0, 0, 0, 0, 0, 0, 45489, 0, 0, 0, 46197, 0, 0, 27970, 8097, 0, 26277, 0, 0, 42385, 0, 43443, 0, 0, 0, 41498, 0, 0, 0],[16790, 0, 0, 0, 0, 0, 0, 0, 0, 0, 43171, 0, 0, 0, 0, 0, 0, 0, -1, 0, 0, 0, 0, 46102, 35382, 0, 15885, 0, 0, 0, 0, 0, 0, 0, 0, 0, 0, 27814, 0, 0, 0, 0, 0, 0, 0, 0, 34981, 34878, 35972, 0, 0, 0, 0, 0, 37029, 0, 19602, 0, 0, 0, 0, 0, 0, 0, 0, 0, 0, 36110, 45975, 15236, 0, 0, 0, 0, 0, 0, 43946, 0, 0, 0, 0, 0],[43693, 0, 0, 0, 0, 0, 32275, 0, 0, 0, 0, 0, 0, 0, 0, 31501, 0, 0, 0, -1, 27624, 0, 0, 29972, 31217, 0, 0, 0, 0, 0, 0, 0, 0, 0, 0, 0, 41617, 0, 0, 0, 0, 0, 0, 0, 0, 44552, 9606, 0, 27397, 39597, 0, 0, 22770, 0, 0, 0, 0, 0, 33289, 0, 0, 40929, 38641, 0, 45142, 0, 0, 0, 0, 42116, 38512, 0, 18518, 0, 0, 0, 28225, 0, 0, 0, 44546, 17328],[0, 0, 0, 32671, 29538, 0, 0, 0, 0, 42614, 0, 0, 43618, 0, 26161, 16907, 24989, 0, 0, 27624, -1, 37357, 42611, 0, 30312, 0, 0, 0, 12228, 0, 0, 0, 0, 0, 0, 0, 0, 0, 32299, 0, 27802, 0, 0, 36948, 0, 0, 0, 42824, 27902, 0, 0, 0, 0, 0, 22885, 0, 15172, 38529, 0, 0, 43560, 42784, 0, 18001, 0, 17685, 0, 0, 0, 42240, 0, 27768, 0, 0, 17172, 0, 0, 0, 0, 0, 0, 0],[0, 0, 32350, 0, 0, 0, 0, 0, 0, 0, 0, 0, 0, 0, 0, 0, 0, 0, 0, 0, 37357, -1, 26673, 0, 0, 25134, 0, 23154, 0, 0, 0, 0, 24444, 0, 35327, 0, 0, 45851, 0, 0, 21339, 0, 0, 40019, 0, 23894, 0, 0, 0, 42027, 0, 0, 0, 39510, 0, 0, 0, 0, 0, 0, 0, 29873, 0, 43348, 0, 0, 0, 0, 0, 17385, 0, 0, 0, 0, 0, 0, 0, 0, 0, 0, 0, 0],[0, 0, 21195, 0, 0, 0, 0, 43105, 0, 34719, 6356, 26427, 0, 0, 0, 18172, 36007, 21302, 0, 0, 42611, 26673, -1, 0, 0, 0, 14983, 0, 36808, 0, 12451, 0, 0, 0, 0, 0, 0, 0, 0, 0, 0, 0, 0, 30082, 0, 0, 42987, 37781, 0, 0, 25192, 0, 0, 0, 21861, 30059, 20585, 0, 0, 0, 0, 0, 0, 0, 0, 0, 44515, 23893, 36405, 0, 0, 0, 0, 0, 0, 0, 0, 45575, 0, 0, 0, 20055],[23117, 0, 0, 0, 0, 0, 0, 23657, 0, 0, 0, 0, 0, 28187, 0, 25062, 0, 0, 46102, 29972, 0, 0, 0, -1, 0, 0, 0, 28066, 12751, 0, 0, 0, 30220, 0, 42625, 0, 0, 0, 0, 31545, 41185, 0, 0, 0, 38111, 0, 0, 11650, 36334, 22899, 0, 0, 0, 0, 0, 0, 0, 40982, 0, 32357, 44441, 16830, 0, 0, 0, 0, 0, 0, 0, 0, 0, 0, 29458, 0, 14233, 0, 0, 21062, 0, 46260, 0, 0],[0, 0, 45578, 3889, 26510, 0, 0, 0, 0, 0, 0, 0, 0, 24714, 0, 25596, 29223, 0, 35382, 31217, 30312, 0, 0, 0, -1, 36036, 0, 0, 0, 0, 0, 26531, 0, 0, 0, 0, 36368, 0, 0, 0, 0, 31173, 0, 0, 27793, 0, 0, 0, 0, 0, 0, 0, 0, 0, 15126, 0, 44494, 0, 0, 0, 0, 0, 0, 0, 41057, 0, 21788, 0, 0, 0, 0, 14736, 26008, 43204, 33848, 0, 0, 20944, 0, 0, 45472, 0],[0, 0, 27526, 0, 0, 0, 28693, 0, 44399, 40058, 0, 0, 0, 33210, 0, 0, 0, 0, 0, 0, 0, 25134, 0, 0, 36036, -1, 40053, 0, 0, 0, 33529, 0, 0, 35169, 0, 0, 26979, 0, 0, 0, 0, 0, 0, 0, 31377, 0, 33980, 0, 17364, 28190, 0, 0, 0, 0, 0, 0, 0, 0, 0, 0, 0, 0, 0, 0, 45406, 36023, 0, 25354, 0, 0, 0, 25136, 0, 0, 0, 31652, 29894, 0, 0, 29867, 28420, 0],[0, 0, 34613, 0, 0, 0, 0, 42087, 0, 0, 0, 0, 0, 0, 0, 0, 0, 0, 15885, 0, 0, 0, 14983, 0, 0, 40053, -1, 36579, 0, 0, 34376, 0, 0, 41064, 0, 0, 0, 0, 0, 0, 38651, 0, 0, 32034, 0, 0, 0, 33990, 0, 26401, 39317, 0, 0, 32394, 0, 31370, 24417, 0, 0, 0, 0, 0, 0, 0, 23292, 35275, 43429, 0, 0, 28386, 0, 0, 0, 22400, 0, 0, 0, 7138, 42912, 0, 0, 0],[0, 0, 37765, 0, 0, 0, 25565, 0, 0, 0, 0, 0, 0, 0, 0, 0, 0, 0, 0, 0, 0, 23154, 0, 28066, 0, 0, 36579, -1, 23560, 0, 0, 0, 0, 25690, 0, 0, 0, 0, 43946, 42431, 0, 0, 34408, 43580, 0, 0, 30567, 0, 18095, 38430, 34066, 0, 44023, 11481, 0, 11616, 0, 29607, 0, 0, 41266, 0, 0, 0, 0, 0, 0, 0, 0, 0, 0, 0, 0, 0, 0, 0, 0, 3665, 0, 0, 0, 13235],[0, 0, 0, 0, 0, 0, 39587, 0, 0, 0, 11324, 0, 0, 0, 33353, 0, 34639, 0, 0, 0, 12228, 0, 36808, 12751, 0, 0, 0, 23560, -1, 0, 0, 0, 21309, 0, 25341, 0, 0, 0, 0, 30290, 29790, 0, 36084, 0, 41545, 0, 0, 0, 0, 0, 0, 0, 0, 0, 44646, 0, 0, 0, 0, 0, 0, 0, 0, 37476, 0, 0, 0, 44676, 0, 28660, 19582, 0, 0, 33264, 0, 14193, 0, 44412, 0, 28989, 0, 0],[0, 26917, 42283, 0, 43669, 13146, 0, 0, 0, 0, 0, 0, 15943, 0, 0, 8713, 0, 6523, 0, 0, 0, 0, 0, 0, 0, 0, 0, 0, 0, -1, 0, 0, 40025, 0, 0, 0, 0, 28602, 16460, 0, 46298, 43430, 0, 28372, 0, 0, 0, 0, 0, 0, 41259, 0, 0, 0, 0, 0, 0, 0, 0, 0, 0, 28730, 0, 0, 0, 0, 39210, 0, 0, 0, 0, 34287, 0, 37724, 0, 0, 0, 44034, 0, 0, 0, 0],[0, 32834, 0, 0, 16281, 0, 0, 0, 12207, 0, 0, 0, 0, 0, 0, 0, 0, 0, 0, 0, 0, 0, 12451, 0, 0, 33529, 34376, 0, 0, 0, -1, 0, 5936, 0, 32418, 18986, 0, 18934, 0, 37889, 0, 36311, 36898, 0, 0, 0, 0, 0, 0, 0, 15329, 0, 0, 0, 0, 0, 0, 43455, 0, 0, 0, 0, 0, 0, 0, 4285, 0, 0, 0, 26312, 40877, 0, 0, 31955, 0, 0, 0, 0, 0, 0, 0, 0],[36724, 16991, 0, 0, 0, 43859, 0, 7715, 0, 0, 43413, 0, 44447, 0, 0, 0, 0, 33567, 0, 0, 0, 0, 0, 0, 26531, 0, 0, 0, 0, 0, 0, -1, 0, 0, 0, 23264, 0, 0, 45618, 0, 0, 0, 0, 0, 11541, 0, 0, 0, 28173, 0, 0, 36728, 28545, 0, 0, 45380, 0, 0, 0, 0, 18948, 0, 0, 0, 0, 0, 0, 0, 31804, 24427, 14535, 0, 45223, 0, 0, 31686, 0, 0, 0, 0, 0, 17146],[0, 0, 0, 0, 0, 0, 0, 0, 0, 32420, 0, 0, 0, 43998, 0, 38890, 0, 0, 0, 0, 0, 24444, 0, 30220, 0, 0, 0, 0, 21309, 40025, 5936, 0, -1, 3959, 0, 40192, 29478, 0, 0, 0, 0, 0, 0, 0, 0, 28555, 0, 0, 0, 0, 0, 0, 0, 0, 0, 0, 41151, 0, 0, 0, 0, 0, 32106, 41315, 24247, 0, 0, 0, 41351, 0, 0, 0, 0, 30146, 0, 0, 0, 0, 0, 0, 0, 0],[0, 0, 0, 0, 0, 40626, 0, 0, 0, 0, 0, 0, 0, 31702, 0, 0, 0, 0, 0, 0, 0, 0, 0, 0, 0, 35169, 41064, 25690, 0, 0, 0, 0, 3959, -1, 0, 38879, 0, 43666, 0, 0, 0, 24734, 0, 0, 0, 0, 24553, 12120, 0, 0, 39467, 29202, 0, 0, 0, 0, 24389, 28366, 21246, 0, 0, 0, 0, 33574, 0, 0, 0, 24035, 0, 0, 20365, 0, 0, 41675, 0, 44339, 0, 0, 0, 0, 17877, 0],[27741, 35208, 0, 17812, 0, 0, 32066, 0, 40838, 39024, 0, 0, 21981, 0, 0, 27615, 39726, 0, 0, 0, 0, 35327, 0, 42625, 0, 0, 0, 0, 25341, 0, 32418, 0, 0, 0, -1, 20309, 24193, 0, 44645, 0, 45264, 45540, 0, 0, 0, 0, 0, 40757, 0, 0, 0, 38792, 0, 0, 0, 0, 0, 0, 0, 30608, 0, 0, 42688, 0, 0, 0, 0, 0, 37634, 0, 0, 0, 0, 0, 0, 0, 0, 0, 0, 42957, 0, 0],[0, 0, 0, 39956, 0, 0, 0, 23805, 20517, 0, 0, 45386, 44550, 0, 0, 40518, 0, 0, 0, 0, 0, 0, 0, 0, 0, 0, 0, 0, 0, 0, 18986, 23264, 40192, 38879, 20309, -1, 36070, 0, 0, 0, 0, 0, 45410, 0, 32982, 43775, 0, 29790, 14558, 0, 0, 0, 0, 0, 44675, 0, 0, 37661, 35856, 0, 0, 0, 32514, 0, 37702, 31583, 44073, 35508, 0, 0, 0, 0, 0, 0, 0, 0, 0, 0, 0, 0, 0, 0],[0, 0, 0, 23682, 0, 0, 0, 0, 0, 0, 0, 0, 0, 0, 39257, 0, 0, 0, 0, 41617, 0, 0, 0, 0, 36368, 26979, 0, 0, 0, 0, 0, 0, 29478, 0, 24193, 36070, -1, 0, 4785, 0, 0, 0, 0, 36210, 42404, 0, 45676, 0, 0, 0, 0, 0, 0, 0, 0, 0, 42248, 0, 0, 0, 27570, 0, 0, 0, 0, 36069, 8473, 0, 0, 0, 0, 18858, 0, 45891, 0, 21710, 0, 0, 0, 0, 35841, 43790],[0, 0, 0, 39821, 0, 0, 34576, 0, 42667, 0, 25029, 0, 0, 0, 0, 16245, 46247, 0, 27814, 0, 0, 45851, 0, 0, 0, 0, 0, 0, 0, 28602, 18934, 0, 0, 43666, 0, 0, 0, -1, 0, 14361, 26789, 0, 0, 0, 38347, 18620, 0, 0, 0, 0, 20639, 0, 0, 19628, 23714, 0, 0, 0, 0, 0, 0, 39177, 32805, 0, 0, 0, 0, 0, 32458, 0, 0, 0, 0, 43375, 0, 0, 0, 0, 0, 0, 0, 38573],[45413, 0, 0, 0, 0, 0, 0, 0, 21977, 0, 0, 0, 27388, 0, 30163, 0, 0, 0, 0, 0, 32299, 0, 0, 0, 0, 0, 0, 43946, 0, 16460, 0, 45618, 0, 0, 44645, 0, 4785, 0, -1, 0, 46260, 0, 0, 0, 0, 0, 0, 0, 41079, 0, 0, 0, 0, 0, 22859, 0, 26223, 0, 43143, 0, 0, 0, 0, 0, 0, 0, 0, 0, 0, 45280, 0, 0, 0, 8778, 0, 22797, 0, 0, 0, 42628, 0, 40523],[0, 0, 35448, 0, 0, 0, 0, 0, 0, 0, 0, 0, 0, 0, 0, 0, 41390, 27921, 0, 0, 0, 0, 0, 31545, 0, 0, 0, 42431, 30290, 0, 37889, 0, 0, 0, 0, 0, 0, 14361, 0, -1, 0, 0, 29860, 0, 0, 36405, 0, 0, 0, 35655, 0, 43872, 33741, 0, 0, 12856, 0, 0, 0, 0, 0, 0, 0, 38957, 0, 0, 27363, 0, 26791, 0, 18723, 0, 4331, 29784, 0, 0, 17879, 0, 0, 0, 0, 0],[0, 0, 0, 45224, 0, 0, 0, 0, 30179, 0, 0, 0, 0, 0, 0, 0, 0, 0, 0, 0, 27802, 21339, 0, 41185, 0, 0, 38651, 0, 29790, 46298, 0, 0, 0, 0, 45264, 0, 0, 26789, 46260, 0, -1, 0, 0, 0, 0, 0, 0, 0, 0, 0, 0, 29011, 5351, 0, 0, 0, 0, 0, 0, 0, 0, 18720, 0, 0, 0, 0, 29571, 0, 0, 39421, 0, 0, 0, 34126, 0, 0, 0, 0, 42110, 0, 24609, 0],[19900, 0, 0, 0, 39263, 0, 0, 0, 0, 0, 0, 0, 0, 0, 19551, 0, 0, 0, 0, 0, 0, 0, 0, 0, 31173, 0, 0, 0, 0, 43430, 36311, 0, 0, 24734, 45540, 0, 0, 0, 0, 0, 0, -1, 0, 0, 0, 19916, 0, 0, 0, 0, 0, 0, 0, 0, 0, 0, 0, 0, 24882, 44021, 0, 0, 0, 0, 0, 0, 23923, 0, 0, 38953, 0, 0, 0, 0, 0, 0, 0, 0, 0, 10854, 36397, 40234],[0, 0, 0, 43154, 0, 0, 0, 0, 0, 0, 0, 0, 34280, 0, 0, 0, 0, 0, 0, 0, 0, 0, 0, 0, 0, 0, 0, 34408, 36084, 0, 36898, 0, 0, 0, 0, 45410, 0, 0, 0, 29860, 0, 0, -1, 1098, 0, 0, 0, 0, 38597, 0, 0, 0, 0, 0, 0, 18371, 42141, 45973, 0, 0, 0, 0, 0, 0, 15116, 0, 0, 0, 0, 0, 30581, 30282, 0, 0, 0, 2336, 0, 0, 0, 0, 0, 0],[29809, 37285, 0, 0, 0, 44404, 0, 0, 0, 0, 0, 0, 0, 0, 0, 0, 0, 0, 0, 0, 36948, 40019, 30082, 0, 0, 0, 32034, 43580, 0, 28372, 0, 0, 0, 0, 0, 0, 36210, 0, 0, 0, 0, 0, 1098, -1, 0, 32239, 27077, 0, 0, 0, 31794, 31489, 0, 0, 0, 0, 0, 0, 0, 28121, 44252, 0, 0, 0, 0, 0, 0, 0, 36776, 21548, 0, 0, 0, 0, 0, 0, 0, 28995, 0, 0, 0, 0],[0, 0, 9928, 0, 42099, 0, 39767, 0, 20220, 0, 34761, 38833, 0, 0, 0, 37944, 0, 30273, 0, 0, 0, 0, 0, 38111, 27793, 31377, 0, 0, 41545, 0, 0, 11541, 0, 0, 0, 32982, 42404, 38347, 0, 0, 0, 0, 0, 0, -1, 0, 0, 0, 0, 0, 0, 0, 42429, 0, 45709, 0, 0, 0, 0, 22008, 0, 31427, 0, 0, 38853, 15620, 0, 0, 32281, 0, 0, 0, 0, 0, 0, 0, 0, 0, 0, 0, 0, 0],[25310, 0, 27879, 0, 0, 0, 13573, 0, 0, 38949, 0, 0, 21351, 0, 13862, 38474, 0, 0, 0, 44552, 0, 23894, 0, 0, 0, 0, 0, 0, 0, 0, 0, 0, 28555, 0, 0, 43775, 0, 18620, 0, 36405, 0, 19916, 0, 32239, 0, -1, 27438, 0, 0, 36489, 0, 0, 45339, 0, 0, 0, 0, 0, 0, 32101, 0, 0, 0, 0, 26104, 34053, 0, 0, 0, 34042, 0, 0, 0, 0, 0, 0, 0, 0, 19311, 0, 0, 33489],[34154, 29919, 0, 0, 0, 0, 0, 0, 0, 0, 39060, 0, 0, 0, 0, 43242, 0, 0, 34981, 9606, 0, 0, 42987, 0, 0, 33980, 0, 30567, 0, 0, 0, 0, 0, 24553, 0, 0, 45676, 0, 0, 0, 0, 0, 0, 27077, 0, 27438, -1, 0, 0, 0, 0, 0, 0, 0, 0, 0, 0, 0, 0, 0, 0, 0, 32852, 0, 0, 0, 0, 0, 0, 35822, 0, 0, 38509, 27058, 42868, 39043, 0, 0, 0, 0, 0, 0],[0, 0, 0, 28547, 0, 0, 27192, 0, 0, 0, 38024, 0, 38379, 25865, 32411, 0, 0, 13076, 34878, 0, 42824, 0, 37781, 11650, 0, 0, 33990, 0, 0, 0, 0, 0, 0, 12120, 40757, 29790, 0, 0, 0, 0, 0, 0, 0, 0, 0, 0, 0, -1, 0, 43824, 22001, 21297, 0, 0, 45901, 13336, 0, 0, 0, 0, 0, 0, 42966, 0, 19578, 0, 0, 38150, 0, 0, 26967, 0, 0, 0, 0, 0, 46272, 0, 0, 0, 0, 0],[0, 27118, 0, 0, 0, 0, 0, 0, 0, 0, 0, 0, 0, 0, 0, 0, 39859, 0, 35972, 27397, 27902, 0, 0, 36334, 0, 17364, 0, 18095, 0, 0, 0, 28173, 0, 0, 0, 14558, 0, 0, 41079, 0, 0, 0, 38597, 0, 0, 0, 0, 0, -1, 0, 0, 0, 0, 0, 0, 45495, 32785, 31526, 0, 40192, 0, 8940, 25690, 0, 0, 0, 0, 0, 30398, 0, 0, 0, 0, 0, 0, 0, 0, 36953, 0, 40218, 0, 0],[34745, 20552, 0, 0, 0, 0, 0, 0, 43483, 39567, 0, 45437, 0, 0, 0, 0, 0, 43689, 0, 39597, 0, 42027, 0, 22899, 0, 28190, 26401, 38430, 0, 0, 0, 0, 0, 0, 0, 0, 0, 0, 0, 35655, 0, 0, 0, 0, 0, 36489, 0, 43824, 0, -1, 24522, 0, 29104, 23426, 31779, 22232, 0, 0, 0, 16741, 0, 45141, 0, 0, 33184, 0, 0, 0, 27168, 0, 24587, 10135, 0, 0, 0, 0, 0, 46250, 29944, 31376, 0, 33242],[27519, 0, 0, 0, 0, 0, 0, 0, 0, 0, 0, 0, 0, 37551, 22309, 23683, 0, 0, 0, 0, 0, 0, 25192, 0, 0, 0, 39317, 34066, 0, 41259, 15329, 0, 0, 39467, 0, 0, 0, 20639, 0, 0, 0, 0, 0, 31794, 0, 0, 0, 22001, 0, 24522, -1, 0, 46127, 0, 0, 13304, 28360, 0, 31177, 0, 0, 0, 44136, 0, 0, 0, 0, 0, 0, 0, 0, 0, 0, 0, 12627, 0, 0, 0, 0, 0, 0, 39203],[45519, 0, 0, 0, 43810, 40955, 0, 33369, 0, 0, 32506, 0, 40671, 0, 0, 43898, 0, 0, 0, 0, 0, 0, 0, 0, 0, 0, 0, 0, 0, 0, 0, 36728, 0, 29202, 38792, 0, 0, 0, 0, 43872, 29011, 0, 0, 31489, 0, 0, 0, 21297, 0, 0, 0, -1, 40944, 0, 0, 0, 0, 0, 18416, 0, 30837, 27094, 0, 0, 0, 0, 27601, 0, 0, 0, 0, 0, 0, 0, 0, 0, 0, 0, 0, 27411, 42471, 0],[0, 26332, 37971, 0, 0, 31627, 35571, 0, 0, 0, 0, 0, 29240, 29581, 31205, 0, 0, 0, 0, 22770, 0, 0, 0, 0, 0, 0, 0, 44023, 0, 0, 0, 28545, 0, 0, 0, 0, 0, 0, 0, 33741, 5351, 0, 0, 0, 42429, 45339, 0, 0, 0, 29104, 46127, 40944, -1, 0, 0, 0, 0, 37197, 0, 0, 0, 41669, 0, 0, 36647, 0, 43406, 0, 0, 22032, 0, 0, 0, 29984, 0, 42463, 0, 0, 0, 0, 0, 40389],[28475, 0, 0, 39724, 0, 0, 0, 0, 0, 0, 0, 0, 0, 0, 5912, 0, 0, 0, 0, 0, 0, 39510, 0, 0, 0, 0, 32394, 11481, 0, 0, 0, 0, 0, 0, 0, 0, 0, 19628, 0, 0, 0, 0, 0, 0, 0, 0, 0, 0, 0, 23426, 0, 0, 0, -1, 0, 0, 33186, 0, 0, 0, 0, 0, 18164, 45045, 45663, 0, 0, 0, 0, 37333, 0, 0, 0, 19519, 0, 0, 0, 0, 0, 0, 0, 22913],[0, 33172, 0, 0, 0, 0, 0, 0, 0, 0, 0, 0, 0, 0, 16296, 0, 35776, 0, 37029, 0, 22885, 0, 21861, 0, 15126, 0, 0, 0, 44646, 0, 0, 0, 0, 0, 0, 44675, 0, 23714, 22859, 0, 0, 0, 0, 0, 45709, 0, 0, 45901, 0, 31779, 0, 0, 0, 0, -1, 16124, 27175, 19897, 0, 0, 0, 0, 0, 0, 0, 0, 19081, 27487, 0, 0, 0, 0, 0, 0, 45140, 0, 0, 0, 0, 0, 0, 16985],[0, 0, 0, 0, 0, 0, 0, 0, 0, 0, 21787, 32248, 32805, 44927, 0, 23858, 0, 0, 0, 0, 0, 0, 30059, 0, 0, 0, 31370, 11616, 0, 0, 0, 45380, 0, 0, 0, 0, 0, 0, 0, 12856, 0, 0, 18371, 0, 0, 0, 0, 13336, 45495, 22232, 13304, 0, 0, 0, 16124, -1, 0, 0, 0, 0, 0, 38337, 0, 40208, 0, 0, 0, 0, 0, 18181, 39378, 44732, 28298, 0, 25247, 0, 0, 0, 15840, 0, 0, 0],[25501, 0, 0, 0, 0, 0, 0, 30419, 45924, 0, 10241, 0, 23894, 14699, 45882, 0, 0, 0, 19602, 0, 15172, 0, 20585, 0, 44494, 0, 24417, 0, 0, 0, 0, 0, 41151, 24389, 0, 0, 42248, 0, 26223, 0, 0, 0, 42141, 0, 0, 0, 0, 0, 32785, 0, 28360, 0, 0, 33186, 27175, 0, -1, 0, 0, 21126, 0, 0, 0, 0, 0, 45472, 0, 41855, 0, 0, 0, 0, 0, 40537, 0, 0, 0, 0, 42471, 40141, 0, 0],[0, 0, 0, 0, 12467, 0, 0, 0, 23063, 0, 41214, 0, 0, 42397, 0, 0, 0, 0, 0, 0, 38529, 0, 0, 40982, 0, 0, 0, 29607, 0, 0, 43455, 0, 0, 28366, 0, 37661, 0, 0, 0, 0, 0, 0, 45973, 0, 0, 0, 0, 0, 31526, 0, 0, 0, 37197, 0, 19897, 0, 0, -1, 0, 0, 0, 20764, 0, 0, 0, 41944, 0, 32970, 0, 0, 0, 0, 0, 0, 0, 0, 12653, 41297, 23722, 0, 0, 34533],[0, 0, 0, 0, 0, 0, 0, 42174, 0, 0, 0, 0, 0, 29870, 44902, 0, 0, 0, 0, 33289, 0, 0, 0, 0, 0, 0, 0, 0, 0, 0, 0, 0, 0, 21246, 0, 35856, 0, 0, 43143, 0, 0, 24882, 0, 0, 0, 0, 0, 0, 0, 0, 31177, 18416, 0, 0, 0, 0, 0, 0, -1, 31479, 0, 0, 0, 39921, 0, 12453, 0, 32076, 0, 0, 0, 0, 0, 0, 40246, 0, 0, 0, 29576, 38310, 0, 0],[0, 35829, 0, 0, 0, 0, 0, 0, 0, 0, 0, 23678, 38354, 0, 0, 0, 0, 45489, 0, 0, 0, 0, 0, 32357, 0, 0, 0, 0, 0, 0, 0, 0, 0, 0, 30608, 0, 0, 0, 0, 0, 0, 44021, 0, 28121, 22008, 32101, 0, 0, 40192, 16741, 0, 0, 0, 0, 0, 0, 21126, 0, 31479, -1, 0, 39693, 24189, 0, 39587, 0, 4935, 0, 31373, 0, 9106, 0, 0, 0, 0, 0, 0, 0, 0, 0, 35875, 0],[0, 0, 27144, 0, 0, 0, 0, 0, 0, 38122, 0, 0, 0, 0, 7709, 0, 0, 0, 0, 0, 43560, 0, 0, 44441, 0, 0, 0, 41266, 0, 0, 0, 18948, 0, 0, 0, 0, 27570, 0, 0, 0, 0, 0, 0, 44252, 0, 0, 0, 0, 0, 0, 0, 30837, 0, 0, 0, 0, 0, 0, 0, 0, -1, 0, 0, 0, 0, 0, 0, 0, 0, 0, 0, 0, 0, 0, 39651, 0, 0, 0, 39499, 0, 0, 0],[0, 0, 0, 0, 0, 0, 8806, 0, 0, 25276, 0, 0, 0, 0, 0, 0, 0, 0, 0, 40929, 42784, 29873, 0, 16830, 0, 0, 0, 0, 0, 28730, 0, 0, 0, 0, 0, 0, 0, 39177, 0, 0, 18720, 0, 0, 0, 31427, 0, 0, 0, 8940, 45141, 0, 27094, 41669, 0, 0, 38337, 0, 20764, 0, 39693, 0, -1, 0, 38980, 41011, 0, 0, 0, 0, 0, 41135, 0, 0, 0, 0, 0, 0, 0, 34535, 22245, 44162, 31563],[0, 15806, 31551, 0, 0, 0, 0, 0, 0, 0, 0, 0, 0, 29879, 0, 0, 19548, 0, 0, 38641, 0, 0, 0, 0, 0, 0, 0, 0, 0, 0, 0, 0, 32106, 0, 42688, 32514, 0, 32805, 0, 0, 0, 0, 0, 0, 0, 0, 32852, 42966, 25690, 0, 44136, 0, 0, 18164, 0, 0, 0, 0, 0, 24189, 0, 0, -1, 0, 0, 0, 35451, 0, 0, 0, 0, 0, 0, 45226, 0, 12716, 0, 0, 0, 0, 12653, 45212],[5698, 0, 0, 29163, 0, 46209, 0, 0, 0, 14778, 0, 0, 0, 0, 0, 0, 0, 46197, 0, 0, 18001, 43348, 0, 0, 0, 0, 0, 0, 37476, 0, 0, 0, 41315, 33574, 0, 0, 0, 0, 0, 38957, 0, 0, 0, 0, 0, 0, 0, 0, 0, 0, 0, 0, 0, 45045, 0, 40208, 0, 0, 39921, 0, 0, 38980, 0, -1, 0, 0, 0, 0, 0, 41735, 0, 0, 0, 0, 0, 0, 0, 0, 0, 0, 0, 0],[20112, 0, 0, 0, 19013, 30205, 0, 0, 41810, 0, 0, 43124, 43182, 0, 0, 34480, 41870, 0, 0, 45142, 0, 0, 0, 0, 41057, 45406, 23292, 0, 0, 0, 0, 0, 24247, 0, 0, 37702, 0, 0, 0, 0, 0, 0, 15116, 0, 38853, 26104, 0, 19578, 0, 33184, 0, 0, 36647, 45663, 0, 0, 0, 0, 0, 39587, 0, 41011, 0, 0, -1, 0, 0, 7234, 0, 21625, 45427, 0, 38422, 43473, 0, 13809, 0, 40385, 0, 0, 0, 0],[37884, 0, 0, 44293, 0, 0, 0, 0, 0, 0, 0, 0, 0, 13481, 0, 0, 0, 0, 0, 0, 17685, 0, 0, 0, 0, 36023, 35275, 0, 0, 0, 4285, 0, 0, 0, 0, 31583, 36069, 0, 0, 0, 0, 0, 0, 0, 15620, 34053, 0, 0, 0, 0, 0, 0, 0, 0, 0, 0, 45472, 41944, 12453, 0, 0, 0, 0, 0, 0, -1, 0, 0, 0, 0, 21043, 14547, 43520, 0, 37760, 0, 0, 0, 24306, 0, 0, 0],[8550, 0, 0, 0, 0, 0, 0, 0, 0, 0, 42751, 0, 0, 0, 0, 0, 0, 27970, 0, 0, 0, 0, 44515, 0, 21788, 0, 43429, 0, 0, 39210, 0, 0, 0, 0, 0, 44073, 8473, 0, 0, 27363, 29571, 23923, 0, 0, 0, 0, 0, 0, 0, 0, 0, 27601, 43406, 0, 19081, 0, 0, 0, 0, 4935, 0, 0, 35451, 0, 0, 0, -1, 21767, 0, 0, 0, 0, 32117, 0, 0, 0, 0, 0, 0, 0, 0, 0],[0, 44170, 28887, 0, 0, 7673, 0, 37369, 0, 0, 0, 0, 29547, 36718, 0, 0, 0, 8097, 36110, 0, 0, 0, 23893, 0, 0, 25354, 0, 0, 44676, 0, 0, 0, 0, 24035, 0, 35508, 0, 0, 0, 0, 0, 0, 0, 0, 0, 0, 0, 38150, 0, 0, 0, 0, 0, 0, 27487, 0, 41855, 32970, 32076, 0, 0, 0, 0, 0, 7234, 0, 21767, -1, 0, 44111, 0, 0, 0, 36109, 0, 0, 0, 29898, 34763, 0, 0, 0],[0, 21675, 0, 0, 39300, 0, 0, 15491, 45421, 0, 23712, 0, 0, 16980, 41201, 0, 44581, 0, 45975, 0, 0, 0, 36405, 0, 0, 0, 0, 0, 0, 0, 0, 31804, 41351, 0, 37634, 0, 0, 32458, 0, 26791, 0, 0, 0, 36776, 32281, 0, 0, 0, 30398, 27168, 0, 0, 0, 0, 0, 0, 0, 0, 0, 31373, 0, 0, 0, 0, 0, 0, 0, 0, -1, 0, 0, 0, 32876, 0, 0, 0, 0, 0, 44977, 5287, 0, 44080],[11929, 0, 0, 31514, 17601, 0, 0, 0, 0, 0, 0, 0, 0, 14962, 0, 32476, 0, 26277, 15236, 42116, 42240, 17385, 0, 0, 0, 0, 28386, 0, 28660, 0, 26312, 24427, 0, 0, 0, 0, 0, 0, 45280, 0, 39421, 38953, 0, 21548, 0, 34042, 35822, 0, 0, 0, 0, 0, 22032, 37333, 0, 18181, 0, 0, 0, 0, 0, 0, 0, 41735, 21625, 0, 0, 44111, 0, -1, 0, 0, 27683, 0, 24051, 0, 0, 34593, 24489, 0, 0, 0],[0, 0, 0, 0, 0, 37830, 0, 0, 0, 0, 25072, 0, 0, 0, 0, 26111, 0, 0, 0, 38512, 0, 0, 0, 0, 0, 0, 0, 0, 19582, 0, 40877, 14535, 0, 20365, 0, 0, 0, 0, 0, 18723, 0, 0, 30581, 0, 0, 0, 0, 26967, 0, 24587, 0, 0, 0, 0, 0, 39378, 0, 0, 0, 9106, 0, 41135, 0, 0, 45427, 21043, 0, 0, 0, 0, -1, 0, 0, 0, 0, 0, 0, 0, 0, 10492, 0, 0],[0, 0, 37129, 26746, 0, 41845, 0, 0, 35322, 0, 0, 0, 41880, 0, 0, 0, 21664, 0, 0, 0, 27768, 0, 0, 0, 14736, 25136, 0, 0, 0, 34287, 0, 0, 0, 0, 0, 0, 18858, 0, 0, 0, 0, 0, 30282, 0, 0, 0, 0, 0, 0, 10135, 0, 0, 0, 0, 0, 44732, 0, 0, 0, 0, 0, 0, 0, 0, 0, 14547, 0, 0, 0, 0, 0, -1, 0, 0, 37101, 0, 28687, 17381, 0, 20324, 0, 0],[0, 0, 0, 0, 0, 0, 0, 5695, 9110, 0, 0, 19276, 0, 0, 0, 42014, 0, 42385, 0, 18518, 0, 0, 0, 29458, 26008, 0, 0, 0, 0, 0, 0, 45223, 0, 0, 0, 0, 0, 0, 0, 4331, 0, 0, 0, 0, 0, 0, 38509, 0, 0, 0, 0, 0, 0, 0, 0, 28298, 0, 0, 0, 0, 0, 0, 0, 0, 38422, 43520, 32117, 0, 32876, 27683, 0, 0, -1, 34654, 4118, 0, 0, 0, 0, 0, 0, 0],[0, 0, 0, 0, 0, 0, 0, 0, 35131, 0, 43617, 0, 37857, 0, 0, 0, 0, 0, 0, 0, 0, 0, 0, 0, 43204, 0, 22400, 0, 33264, 37724, 31955, 0, 30146, 41675, 0, 0, 45891, 43375, 8778, 29784, 34126, 0, 0, 0, 0, 0, 27058, 0, 0, 0, 0, 0, 29984, 19519, 0, 0, 40537, 0, 0, 0, 0, 0, 45226, 0, 43473, 0, 0, 36109, 0, 0, 0, 0, 34654, -1, 0, 0, 32741, 0, 0, 0, 37971, 0],[31436, 24560, 9020, 45055, 40767, 5274, 22101, 0, 0, 0, 0, 37921, 20657, 42169, 0, 0, 0, 43443, 0, 0, 17172, 0, 0, 14233, 33848, 0, 0, 0, 0, 0, 0, 0, 0, 0, 0, 0, 0, 0, 0, 0, 0, 0, 0, 0, 0, 0, 42868, 0, 0, 0, 12627, 0, 0, 0, 45140, 25247, 0, 0, 40246, 0, 39651, 0, 0, 0, 0, 37760, 0, 0, 0, 24051, 0, 37101, 4118, 0, -1, 0, 15370, 0, 0, 0, 0, 0],[0, 0, 0, 38854, 31791, 0, 0, 30823, 0, 0, 0, 0, 0, 0, 21792, 36375, 0, 0, 0, 0, 0, 0, 0, 0, 0, 31652, 0, 0, 14193, 0, 0, 31686, 0, 44339, 0, 0, 21710, 0, 22797, 0, 0, 0, 2336, 0, 0, 0, 39043, 0, 0, 0, 0, 0, 42463, 0, 0, 0, 0, 0, 0, 0, 0, 0, 12716, 0, 13809, 0, 0, 0, 0, 0, 0, 0, 0, 0, 0, -1, 0, 0, 0, 0, 0, 26880],[0, 0, 0, 31740, 0, 0, 0, 0, 0, 0, 0, 0, 0, 0, 23420, 0, 0, 0, 43946, 28225, 0, 0, 0, 0, 0, 29894, 0, 0, 0, 0, 0, 0, 0, 0, 0, 0, 0, 0, 0, 17879, 0, 0, 0, 0, 0, 0, 0, 46272, 0, 0, 0, 0, 0, 0, 0, 0, 0, 12653, 0, 0, 0, 0, 0, 0, 0, 0, 0, 0, 0, 0, 0, 28687, 0, 32741, 15370, 0, -1, 0, 0, 0, 0, 0],[0, 0, 0, 0, 0, 0, 0, 8647, 25511, 0, 0, 0, 28798, 31445, 0, 29581, 0, 0, 0, 0, 0, 0, 45575, 21062, 20944, 0, 7138, 3665, 44412, 44034, 0, 0, 0, 0, 0, 0, 0, 0, 0, 0, 0, 0, 0, 28995, 0, 0, 0, 0, 36953, 46250, 0, 0, 0, 0, 0, 0, 0, 41297, 0, 0, 0, 0, 0, 0, 40385, 0, 0, 29898, 0, 34593, 0, 17381, 0, 0, 0, 0, 0, -1, 0, 0, 0, 0],[0, 0, 0, 0, 0, 0, 0, 0, 0, 24255, 29030, 0, 24941, 0, 0, 0, 0, 41498, 0, 0, 0, 0, 0, 0, 0, 0, 42912, 0, 0, 0, 0, 0, 0, 0, 0, 0, 0, 0, 0, 0, 42110, 0, 0, 0, 0, 19311, 0, 0, 0, 29944, 0, 0, 0, 0, 0, 15840, 42471, 23722, 29576, 0, 39499, 34535, 0, 0, 0, 24306, 0, 34763, 44977, 24489, 0, 0, 0, 0, 0, 0, 0, 0, -1, 0, 0, 0],[0, 0, 0, 42489, 0, 0, 0, 0, 0, 18050, 18741, 23118, 41135, 36645, 0, 0, 25118, 0, 0, 0, 0, 0, 0, 46260, 0, 29867, 0, 0, 28989, 0, 0, 0, 0, 0, 42957, 0, 0, 0, 42628, 0, 0, 10854, 0, 0, 0, 0, 0, 0, 40218, 31376, 0, 27411, 0, 0, 0, 0, 40141, 0, 38310, 0, 0, 22245, 0, 0, 0, 0, 0, 0, 5287, 0, 10492, 20324, 0, 0, 0, 0, 0, 0, 0, -1, 0, 13432],[0, 0, 0, 9367, 0, 0, 0, 0, 0, 0, 0, 0, 0, 0, 0, 0, 0, 0, 0, 44546, 0, 0, 0, 0, 45472, 28420, 0, 0, 0, 0, 0, 0, 0, 17877, 0, 0, 35841, 0, 0, 0, 24609, 36397, 0, 0, 0, 0, 0, 0, 0, 0, 0, 42471, 0, 0, 0, 0, 0, 0, 0, 35875, 0, 44162, 12653, 0, 0, 0, 0, 0, 0, 0, 0, 0, 0, 37971, 0, 0, 0, 0, 0, 0, -1, 0],[0, 0, 44951, 0, 0, 0, 0, 0, 0, 0, 0, 0, 0, 0, 0, 0, 0, 0, 0, 17328, 0, 0, 20055, 0, 0, 0, 0, 13235, 0, 0, 0, 17146, 0, 0, 0, 0, 43790, 38573, 40523, 0, 0, 40234, 0, 0, 0, 33489, 0, 0, 0, 33242, 39203, 0, 40389, 22913, 16985, 0, 0, 34533, 0, 0, 0, 31563, 45212, 0, 0, 0, 0, 0, 44080, 0, 0, 0, 0, 0, 0, 26880, 0, 0, 0, 13432, 0, -1]]